100 8
661 405
617 470
548 685
631 535
446 535
348 710
617 188
71 54
121 73
531 615
597 486
771 577
834 615
583 419
653 475
610 652
198 142
656 696
649 357
435 374
210 578
266 803
495 494
628 855
123 588
535 586
607 881
664 428
527 470
534 882
365 736
649 834
413 552
206 612
258 706
192 749
242 923
491 348
227 662
222 176
706 382
522 877
116 538
804 600
454 421
477 595
490 558
662 673
226 547
805 852
382 495
456 617
687 250
546 338
574 700
615 485
408 422
600 634
835 512
858 650
199 579
632 606
113 426
585 115
453 626
138 792
792 405
349 315
382 720
665 841
104 438
663 107
228 186
664 325
173 445
379 706
750 397
431 893
584 450
198 802
658 512
78 852
163 835
403 898
215 491
74 767
805 545
161 750
729 546
445 890
136 746
153 190
505 481
404 861
744 518
793 593
603 773
406 359
161 552
37 153
